Automatic mesh
0
Monkhorst Pack
  6  6  1
  0.  0.  0.

