GaN_GGA_surf_001_4x_sc_1x1x1_H_H_mp
    1.0
            3.24801365 0.00000000 0.00000000 
            -1.62400669 2.81286241 0.00000000 
            0.00000146 0.00000254 40.00000000 
  8 8 1 1
Direct
        0.66666751 0.33333445 0.31043575
        0.33333445 0.66666751 0.37635925
        0.66666751 0.33333445 0.44248875
        0.33333445 0.66666751 0.50841225
        0.66666751 0.33333445 0.57454175
        0.33333445 0.66666751 0.64046525
        0.66666751 0.33333445 0.70659475
        0.33333445 0.66666751 0.77251825
        0.33333445 0.66666751 0.32668600
        0.66666751 0.33333445 0.39269375
        0.33333445 0.66666751 0.45873900
        0.66666751 0.33333445 0.52474675
        0.33333445 0.66666751 0.59079200
        0.66666751 0.33333445 0.65679975
        0.33333445 0.66666751 0.72284500
        0.66666751 0.33333445 0.78885275
        0.66666751 0.33333445 0.81529884
        0.66666751 0.33333445 0.27043683

